objective value:                                -4883
t_x0                                                1 	(obj:-100)
t_x1                                                1 	(obj:-100)
t_x2                                                1 	(obj:-100)
t_x3                                                1 	(obj:-100)
t_x7                                                1 	(obj:-100)
t_x9                                                1 	(obj:-100)
t_x10                                               1 	(obj:-100)
t_x12                                               1 	(obj:-100)
t_x13                                               1 	(obj:-100)
t_x14                                               1 	(obj:-100)
t_x15                                               1 	(obj:-100)
t_x16                                               1 	(obj:-100)
t_x17                                               1 	(obj:-100)
t_x21                                               1 	(obj:-100)
t_x26                                               1 	(obj:-100)
t_x27                                               1 	(obj:-100)
t_x30                                               1 	(obj:-100)
t_x37                                               1 	(obj:-100)
t_x39                                               1 	(obj:-100)
t_x41                                               1 	(obj:-100)
t_x42                                               1 	(obj:-100)
t_x43                                               1 	(obj:-100)
t_x45                                               1 	(obj:-100)
t_x47                                               1 	(obj:-100)
t_x48                                               1 	(obj:-100)
t_x50                                               1 	(obj:-100)
t_x51                                               1 	(obj:-100)
t_x54                                               1 	(obj:-100)
t_x55                                               1 	(obj:-100)
t_x57                                               1 	(obj:-100)
t_x58                                               1 	(obj:-100)
t_x62                                               1 	(obj:-100)
t_x65                                               1 	(obj:-100)
t_x67                                               1 	(obj:-100)
t_x69                                               1 	(obj:-100)
t_x70                                               1 	(obj:-100)
t_x71                                               1 	(obj:-100)
t_x72                                               1 	(obj:-100)
t_x78                                               1 	(obj:-100)
t_x80                                               1 	(obj:-100)
t_x82                                               1 	(obj:-100)
t_x83                                               1 	(obj:-100)
t_x86                                               1 	(obj:-100)
t_x88                                               1 	(obj:-100)
t_x89                                               1 	(obj:-100)
t_x90                                               1 	(obj:-100)
t_x93                                               1 	(obj:-100)
t_x97                                               1 	(obj:-100)
t_x98                                               1 	(obj:-100)
t_x102                                              1 	(obj:-100)
t_y14_74                                            1 	(obj:1)
t_y13_70                                            1 	(obj:1)
t_y48_86                                            1 	(obj:1)
t_y26_98                                            1 	(obj:1)
t_y55_78                                            1 	(obj:1)
t_y17_90                                            1 	(obj:1)
t_y12_69                                            1 	(obj:1)
t_y0_67                                             1 	(obj:1)
t_y17_39                                            1 	(obj:1)
t_y37_54                                            1 	(obj:1)
t_y20_82                                            1 	(obj:1)
t_y58_72                                            1 	(obj:1)
t_y45_71                                            1 	(obj:1)
t_y3_55                                             1 	(obj:1)
t_y10_47                                            1 	(obj:1)
t_y43_45                                            1 	(obj:1)
t_y2_7                                              1 	(obj:1)
t_y20_54                                            1 	(obj:1)
t_y74_97                                            1 	(obj:1)
t_y42_95                                            1 	(obj:1)
t_y47_86                                            1 	(obj:1)
t_y8_82                                             1 	(obj:1)
t_y3_37                                             1 	(obj:1)
t_y27_32                                            1 	(obj:1)
t_y62_70                                            1 	(obj:1)
t_y86_88                                            1 	(obj:1)
t_y27_70                                            1 	(obj:1)
t_y1_70                                             1 	(obj:1)
t_y67_82                                            1 	(obj:1)
t_y8_89                                             1 	(obj:1)
t_y82_90                                            1 	(obj:1)
t_y37_89                                            1 	(obj:1)
t_y2_45                                             1 	(obj:1)
t_y1_95                                             1 	(obj:1)
t_y9_17                                             1 	(obj:1)
t_y57_88                                            1 	(obj:1)
t_y67_97                                            1 	(obj:1)
t_y32_70                                            1 	(obj:1)
t_y74_78                                            1 	(obj:1)
t_y15_50                                            1 	(obj:1)
t_y26_32                                            1 	(obj:1)
t_y14_78                                            1 	(obj:1)
t_y51_78                                            1 	(obj:1)
t_y0_102                                            1 	(obj:1)
t_y7_51                                             1 	(obj:1)
t_y1_10                                             1 	(obj:1)
t_y26_39                                            1 	(obj:1)
t_y74_98                                            1 	(obj:1)
t_y72_78                                            1 	(obj:1)
t_y10_43                                            1 	(obj:1)
t_y26_86                                            1 	(obj:1)
t_y74_86                                            1 	(obj:1)
t_y9_63                                             1 	(obj:1)
t_y1_65                                             1 	(obj:1)
t_y0_97                                             1 	(obj:1)
t_y26_88                                            1 	(obj:1)
t_y16_37                                            1 	(obj:1)
t_y45_55                                            1 	(obj:1)
t_y90_98                                            1 	(obj:1)
t_y2_15                                             1 	(obj:1)
t_y70_80                                            1 	(obj:1)
t_y20_88                                            1 	(obj:1)
t_y55_93                                            1 	(obj:1)
t_y50_102                                           1 	(obj:1)
t_y39_72                                            1 	(obj:1)
t_y10_41                                            1 	(obj:1)
t_y43_57                                            1 	(obj:1)
t_y51_54                                            1 	(obj:1)
t_y80_88                                            1 	(obj:1)
t_y27_71                                            1 	(obj:1)
t_y3_89                                             1 	(obj:1)
t_y67_83                                            1 	(obj:1)
t_y30_101                                           1 	(obj:1)
t_y14_82                                            1 	(obj:1)
t_y27_38                                            1 	(obj:1)
t_y13_50                                            1 	(obj:1)
t_y45_70                                            1 	(obj:1)
t_y2_39                                             1 	(obj:1)
t_y51_65                                            1 	(obj:1)
t_y13_43                                            1 	(obj:1)
t_y57_98                                            1 	(obj:1)
t_y12_82                                            1 	(obj:1)
t_y26_82                                            1 	(obj:1)
t_y27_102                                           1 	(obj:1)
t_y67_70                                            1 	(obj:1)
t_y20_62                                            1 	(obj:1)
t_y98_101                                           1 	(obj:1)
t_y27_89                                            1 	(obj:1)
t_y7_48                                             1 	(obj:1)
t_y50_83                                            1 	(obj:1)
t_y74_93                                            1 	(obj:1)
t_y7_65                                             1 	(obj:1)
t_y42_97                                            1 	(obj:1)
t_y0_32                                             1 	(obj:1)
t_y1_45                                             1 	(obj:1)
t_y58_63                                            1 	(obj:1)
t_y30_57                                            1 	(obj:1)
t_y21_43                                            1 	(obj:1)
t_y0_96                                             1 	(obj:1)
t_y39_51                                            1 	(obj:1)
t_y30_102                                           1 	(obj:1)
t_y55_62                                            1 	(obj:1)
t_y15_101                                           1 	(obj:1)
t_y43_89                                            1 	(obj:1)
t_y21_32                                            1 	(obj:1)
t_y16_27                                            1 	(obj:1)
t_y14_98                                            1 	(obj:1)
t_y10_21                                            1 	(obj:1)
t_y8_67                                             1 	(obj:1)
t_y10_89                                            1 	(obj:1)
t_y12_38                                            1 	(obj:1)
t_y7_62                                             1 	(obj:1)
t_y50_93                                            1 	(obj:1)
t_y0_26                                             1 	(obj:1)
t_y12_26                                            1 	(obj:1)
t_y21_72                                            1 	(obj:1)
t_y0_48                                             1 	(obj:1)
